Ba1 Ti1 O3
1.0
   4.0044570000000004    0.0000000000000000    0.0000000000000002
  -0.0000000000000002    4.0044570000000004    0.0000000000000002
   0.0000000000000000    0.0000000000000000    4.2006360000000003
Ba Ti O
1 1 3
direct
   0.5000000000000000    0.5000000000000000    0.0041360000000000 Ba
   0.0000000000000000    0.0000000000000000    0.5243130000000000 Ti
   0.0000000000000000    0.5000000000000000    0.4793490000000000 O
   0.5000000000000000    0.0000000000000000    0.4793490000000000 O
   0.0000000000000000    0.0000000000000000    0.9588540000000000 O
